25 3
5 7 9
0 0 0 0 23 2 3 4 5 6 7 8 9 10 11 12 13 14 15 16 17 18 19 20 21 22 23 24
5 5 1 2 1 5
5 3 1 2 1 25
1 3 1 1 1 20
6 3 2 3 1 21
3 1 1 3 1 21
3 3 1 3 1 19
6 2 1 3 1 9
4 4 1 3 1 25
2 4 2 2 1 11
3 2 1 1 1 25
3 2 2 3 1 25
4 5 2 1 1 25
6 2 2 2 1 16
3 5 1 3 1 25
3 2 1 3 1 25
1 2 1 1 1 25
4 2 2 3 1 25
3 2 1 1 1 25
4 4 2 1 1 25
3 1 1 2 1 25
6 1 2 3 1 25
5 1 1 1 1 25
1 5 2 2 1 25
0 0 0 0 0
